33 33
23
3 3 19 30
3 4 6 29
3 5 22 15
3 6 3 0
3 7 6 22
3 8 6 14
3 9 9 24
3 10 3 23
3 13 22 20
3 14 6 0
3 15 26 0
3 17 3 6
3 24 9 0
3 30 19 0
3 33 0 0
4 3 22 0
4 4 25 15
4 6 29 27
4 10 29 0
4 12 22 3
4 14 25 19
4 17 29 10
7 33 12 0
